c description: Random 3-CNF over 18 variables and 77 clauses
c generator: CNFgen (0.9.2)
c copyright: (C) 2012-2022 Massimo Lauria <massimo.lauria@uniroma1.it>
c url: https://massimolauria.net/cnfgen
c command line: cnfgen --output CNF_4.28/18_bit_77_648.cnf randkcnf 3 18 77
c
p cnf 18 77
-1 5 12 0
-5 7 -18 0
7 10 12 0
-7 -8 -18 0
7 10 -13 0
1 10 15 0
-2 12 16 0
-1 6 9 0
-3 13 -16 0
-8 -13 -17 0
4 -12 17 0
4 -8 13 0
-3 -10 11 0
-9 10 -18 0
-2 4 14 0
7 16 -17 0
2 8 15 0
2 -4 -15 0
5 11 17 0
8 -9 13 0
-5 -8 -17 0
-8 13 -17 0
1 -4 -15 0
-8 10 -17 0
12 15 -16 0
2 -11 13 0
-1 3 -6 0
6 9 -17 0
4 -10 12 0
12 -16 18 0
-7 10 -11 0
-2 -15 18 0
-5 13 -15 0
8 -12 -14 0
-2 -9 18 0
-1 -5 -11 0
1 -6 16 0
10 -12 17 0
6 -8 -13 0
-2 7 11 0
4 8 10 0
-1 -5 -15 0
-3 14 17 0
-5 10 -14 0
-1 12 18 0
-1 5 15 0
-11 13 -14 0
3 6 9 0
-4 -10 -11 0
-6 -8 11 0
-1 7 -17 0
-3 11 17 0
1 -11 -13 0
-11 12 -16 0
3 -8 -14 0
-3 -8 -18 0
3 7 -15 0
12 14 17 0
-1 -8 -12 0
-6 7 13 0
-4 -14 -16 0
-6 -11 16 0
12 -13 18 0
-3 7 18 0
-5 -14 16 0
10 -13 15 0
1 6 9 0
-3 12 18 0
2 -8 15 0
2 -11 17 0
1 -12 -17 0
9 -11 -18 0
-2 9 -15 0
9 11 18 0
-1 7 13 0
12 13 -15 0
8 -12 18 0
